(declare-fun cmp.i_26_12 () (_ BitVec 1))
(declare-fun i.i_26_10 () (_ BitVec 64))
(declare-fun dst_reg_26_5 () (_ BitVec 64))
(declare-fun dst_reg_26_9 () (_ BitVec 32))
(declare-fun dst_reg_26_8 () (_ BitVec 64))
(declare-fun dst_reg_26_7 () (_ BitVec 64))
(declare-fun dst_reg_26_6 () (_ BitVec 64))
(declare-fun dst_reg_26_4 () (_ BitVec 64))
(declare-fun dst_reg_26_3 () (_ BitVec 64))
(declare-fun dst_reg_26_2 () (_ BitVec 32))
(declare-fun dst_reg_26_1 () (_ BitVec 32))
(declare-fun dst_reg_26_0 () (_ BitVec 32))
(declare-fun cmp1.i_26_15 () (_ BitVec 1))
(declare-fun i24.i_26_13 () (_ BitVec 64))
(declare-fun i29.i_26_26 () (_ BitVec 64))
(declare-fun cond53.i_26_32 () (_ BitVec 64))
(declare-fun cmp48.i_26_31 () (_ BitVec 1))
(declare-fun cmp21.i_26_25 () (_ BitVec 1))
(declare-fun cmp40.i_26_30 () (_ BitVec 1))
(declare-fun conv.i.i.i_26_91 () (_ BitVec 32))
(declare-fun phi.bo_26_93 () (_ BitVec 32))
(declare-fun i.i.i.i.i.neg_26_90 () (_ BitVec 32))
(declare-fun num.4.i.i.i.i_26_87 () (_ BitVec 32))
(declare-fun word.addr.4.lobit.i.i.i.i.neg_26_89 () (_ BitVec 64))
(declare-fun word.addr.4.i.i.i.i_26_86 () (_ BitVec 64))
(declare-fun num.3.i.i.i.i_26_79 () (_ BitVec 32))
(declare-fun sub22.i.i.i.i_26_83 () (_ BitVec 32))
(declare-fun tobool20.not.i.i.i.i_26_81 () (_ BitVec 1))
(declare-fun word.addr.3.i.i.i.i_26_78 () (_ BitVec 64))
(declare-fun shl23.i.i.i.i_26_85 () (_ BitVec 64))
(declare-fun num.2.i.i.i.i_26_71 () (_ BitVec 32))
(declare-fun sub16.i.i.i.i_26_75 () (_ BitVec 32))
(declare-fun tobool14.not.i.i.i.i_26_73 () (_ BitVec 1))
(declare-fun word.addr.2.i.i.i.i_26_70 () (_ BitVec 64))
(declare-fun shl17.i.i.i.i_26_77 () (_ BitVec 64))
(declare-fun num.1.i.i.i.i_26_63 () (_ BitVec 32))
(declare-fun sub10.i.i.i.i_26_67 () (_ BitVec 32))
(declare-fun tobool8.not.i.i.i.i_26_65 () (_ BitVec 1))
(declare-fun word.addr.1.i.i.i.i_26_62 () (_ BitVec 64))
(declare-fun shl11.i.i.i.i_26_69 () (_ BitVec 64))
(declare-fun spec.select17.i.i.i.i_26_55 () (_ BitVec 32))
(declare-fun sub4.i.i.i.i_26_59 () (_ BitVec 32))
(declare-fun tobool2.not.i.i.i.i_26_57 () (_ BitVec 1))
(declare-fun spec.select.i.i.i.i_26_52 () (_ BitVec 64))
(declare-fun shl5.i.i.i.i_26_61 () (_ BitVec 64))
(declare-fun tobool.not.i.i.i.i_26_49 () (_ BitVec 1))
(declare-fun xor.i.i_26_45 () (_ BitVec 64))
(declare-fun shl.i.i.i.i_26_51 () (_ BitVec 64))
(declare-fun cmp.i.i.i_26_47 () (_ BitVec 1))
(declare-fun i27.i_26_20 () (_ BitVec 64))
(declare-fun cond17.i_26_22 () (_ BitVec 64))
(declare-fun i26.i_26_19 () (_ BitVec 64))
(declare-fun cmp12.i_26_21 () (_ BitVec 1))
(declare-fun i25.i_26_16 () (_ BitVec 64))
(declare-fun cond.i_26_18 () (_ BitVec 64))
(declare-fun cmp4.i_26_17 () (_ BitVec 1))
(declare-fun i28.i_26_23 () (_ BitVec 64))
(declare-fun cond36.i_26_28 () (_ BitVec 64))
(declare-fun cmp31.i_26_27 () (_ BitVec 1))
(declare-fun dst_reg_26_124 () (_ BitVec 32))
(declare-fun dst_reg_26_42 () (_ BitVec 32))
(declare-fun dst_reg_26_123 () (_ BitVec 64))
(declare-fun dst_reg_26_41 () (_ BitVec 64))
(declare-fun dst_reg_26_122 () (_ BitVec 64))
(declare-fun dst_reg_26_40 () (_ BitVec 64))
(declare-fun dst_reg_26_121 () (_ BitVec 64))
(declare-fun dst_reg_26_39 () (_ BitVec 64))
(declare-fun dst_reg_26_120 () (_ BitVec 64))
(declare-fun dst_reg_26_38 () (_ BitVec 64))
(declare-fun dst_reg_26_119 () (_ BitVec 64))
(declare-fun and.i1.i_26_110 () (_ BitVec 64))
(declare-fun dst_reg_26_118 () (_ BitVec 64))
(declare-fun and4.i.i_26_113 () (_ BitVec 64))
(declare-fun dst_reg_26_117 () (_ BitVec 32))
(declare-fun dst_reg_26_35 () (_ BitVec 32))
(declare-fun dst_reg_26_116 () (_ BitVec 32))
(declare-fun dst_reg_26_34 () (_ BitVec 32))
(declare-fun dst_reg_26_115 () (_ BitVec 32))
(declare-fun dst_reg_26_33 () (_ BitVec 32))
(declare-fun retval.0.i.i.i_26_94 () (_ BitVec 32))
(declare-fun neg.i.i_26_112 () (_ BitVec 64))
(declare-fun or.i.i_26_109 () (_ BitVec 64))
(declare-fun i11.i_26_108 () (_ BitVec 64))
(declare-fun retval.sroa.3.0.i.i_26_106 () (_ BitVec 64))
(declare-fun i9.i_26_107 () (_ BitVec 64))
(declare-fun retval.sroa.0.0.i.i_26_104 () (_ BitVec 64))
(declare-fun sub.i.i_26_101 () (_ BitVec 64))
(declare-fun cmp.i.i_26_96 () (_ BitVec 1))
(declare-fun and.i.i_26_102 () (_ BitVec 64))
(declare-fun i.i2_26_43 () (_ BitVec 64))
(declare-fun notmask.i.i_26_99 () (_ BitVec 64))
(declare-fun sh_prom.i.i_26_97 () (_ BitVec 64))
(declare-fun dst_reg_26_37 () (_ BitVec 64))
(declare-fun dst_reg_26_36 () (_ BitVec 64))
(declare-fun i5.i_26_44 () (_ BitVec 64))
(assert (let ((a!1 (and (= cmp21.i_26_25 #b0)
                (and (= cmp1.i_26_15 #b0) (= cmp.i_26_12 #b0))))
      (a!2 (and (= cmp21.i_26_25 #b1)
                (and (= cmp1.i_26_15 #b0) (= cmp.i_26_12 #b0))))
      (a!3 (or (and (= cmp1.i_26_15 #b1) (= cmp.i_26_12 #b0))
               (= cmp.i_26_12 #b1)))
      (a!10 (=> (and (= cmp1.i_26_15 #b0) (= cmp.i_26_12 #b0))
                (and (= dst_reg_26_8 i28.i_26_23)
                     (ite (bvsgt i28.i_26_23 #xffffffffffffffff)
                          (= cmp21.i_26_25 #b1)
                          (= cmp21.i_26_25 #b0))
                     (= dst_reg_26_7 i29.i_26_26))))
      (a!14 (=> (= cmp.i_26_12 #b0)
                (and (= dst_reg_26_6 i24.i_26_13)
                     (ite (bvslt i24.i_26_13 #x0000000000000000)
                          (= cmp1.i_26_15 #b1)
                          (= cmp1.i_26_15 #b0))))))
(let ((a!4 (or (and (= cmp40.i_26_30 #b1) a!1)
               (and (= cmp40.i_26_30 #b0) a!1)
               a!2
               a!3))
      (a!5 (and (= dst_reg_26_40 i.i2_26_43)
                (= dst_reg_26_41 i5.i_26_44)
                (= xor.i.i_26_45 (bvxor i5.i_26_44 i.i2_26_43))
                (ite (= xor.i.i_26_45 #x0000000000000000)
                     (= cmp.i.i.i_26_47 #b1)
                     (= cmp.i.i.i_26_47 #b0))
                (=> a!3
                    (and (= dst_reg_26_0 dst_reg_26_33)
                         (= dst_reg_26_1 dst_reg_26_34)
                         (= dst_reg_26_2 dst_reg_26_35)
                         (= dst_reg_26_3 dst_reg_26_36)
                         (= dst_reg_26_4 dst_reg_26_37)
                         (= cond.i_26_18 dst_reg_26_38)
                         (= cond17.i_26_22 dst_reg_26_39)
                         (= cond.i_26_18 dst_reg_26_40)
                         (= cond17.i_26_22 dst_reg_26_41)
                         (= dst_reg_26_9 dst_reg_26_42)))
                (=> a!2
                    (and (= dst_reg_26_0 dst_reg_26_33)
                         (= dst_reg_26_1 dst_reg_26_34)
                         (= dst_reg_26_2 dst_reg_26_35)
                         (= dst_reg_26_3 dst_reg_26_36)
                         (= dst_reg_26_4 dst_reg_26_37)
                         (= i29.i_26_26 dst_reg_26_38)
                         (= cond36.i_26_28 dst_reg_26_39)
                         (= dst_reg_26_7 dst_reg_26_40)
                         (= cond36.i_26_28 dst_reg_26_41)
                         (= dst_reg_26_9 dst_reg_26_42)))
                (=> (and (= cmp40.i_26_30 #b0) a!1)
                    (and (= dst_reg_26_0 dst_reg_26_33)
                         (= dst_reg_26_1 dst_reg_26_34)
                         (= dst_reg_26_2 dst_reg_26_35)
                         (= dst_reg_26_3 dst_reg_26_36)
                         (= dst_reg_26_4 dst_reg_26_37)
                         (= dst_reg_26_5 dst_reg_26_38)
                         (= dst_reg_26_6 dst_reg_26_39)
                         (= dst_reg_26_7 dst_reg_26_40)
                         (= dst_reg_26_8 dst_reg_26_41)
                         (= dst_reg_26_9 dst_reg_26_42)))
                (=> (and (= cmp40.i_26_30 #b1) a!1)
                    (and (= dst_reg_26_0 dst_reg_26_33)
                         (= dst_reg_26_1 dst_reg_26_34)
                         (= dst_reg_26_2 dst_reg_26_35)
                         (= dst_reg_26_3 dst_reg_26_36)
                         (= dst_reg_26_4 dst_reg_26_37)
                         (= cond53.i_26_32 dst_reg_26_38)
                         (= i28.i_26_23 dst_reg_26_39)
                         (= cond53.i_26_32 dst_reg_26_40)
                         (= dst_reg_26_8 dst_reg_26_41)
                         (= dst_reg_26_9 dst_reg_26_42)))))
      (a!6 (=> a!1
               (and (ite (bvslt i29.i_26_26 #x0000000000000000)
                         (= cmp40.i_26_30 #b1)
                         (= cmp40.i_26_30 #b0)))))
      (a!9 (=> a!2
               (and (ite (bvult i24.i_26_13 i28.i_26_23)
                         (= cmp31.i_26_27 #b1)
                         (= cmp31.i_26_27 #b0))
                    (ite (= cmp31.i_26_27 #b1)
                         (= cond36.i_26_28 i24.i_26_13)
                         (= cond36.i_26_28 i28.i_26_23)))))
      (a!11 (=> a!3
                (and (= dst_reg_26_7 i25.i_26_16)
                     (ite (bvugt i.i_26_10 i25.i_26_16)
                          (= cmp4.i_26_17 #b1)
                          (= cmp4.i_26_17 #b0))
                     (ite (= cmp4.i_26_17 #b1)
                          (= cond.i_26_18 i.i_26_10)
                          (= cond.i_26_18 i25.i_26_16))
                     (= dst_reg_26_6 i26.i_26_19)
                     (= dst_reg_26_8 i27.i_26_20)
                     (ite (bvult i26.i_26_19 i27.i_26_20)
                          (= cmp12.i_26_21 #b1)
                          (= cmp12.i_26_21 #b0))
                     (ite (= cmp12.i_26_21 #b1)
                          (= cond17.i_26_22 i26.i_26_19)
                          (= cond17.i_26_22 i27.i_26_20)))))
      (a!13 (=> (and (= cmp40.i_26_30 #b1) a!1)
                (and (ite (bvugt i.i_26_10 i29.i_26_26)
                          (= cmp48.i_26_31 #b1)
                          (= cmp48.i_26_31 #b0))
                     (ite (= cmp48.i_26_31 #b1)
                          (= cond53.i_26_32 i.i_26_10)
                          (= cond53.i_26_32 i29.i_26_26))))))
(let ((a!7 (and (ite (bvugt retval.0.i.i.i_26_94 #x0000003f)
                     (= cmp.i.i_26_96 #b1)
                     (= cmp.i.i_26_96 #b0))
                (= sh_prom.i.i_26_97 ((_ zero_extend 32) retval.0.i.i.i_26_94))
                (= notmask.i.i_26_99
                   (bvshl #xffffffffffffffff sh_prom.i.i_26_97))
                (= sub.i.i_26_101 (bvxor notmask.i.i_26_99 #xffffffffffffffff))
                (= and.i.i_26_102 (bvand notmask.i.i_26_99 i.i2_26_43))
                (ite (= cmp.i.i_26_96 #b1)
                     (= retval.sroa.0.0.i.i_26_104 #x0000000000000000)
                     (= retval.sroa.0.0.i.i_26_104 and.i.i_26_102))
                (ite (= cmp.i.i_26_96 #b1)
                     (= retval.sroa.3.0.i.i_26_106 #xffffffffffffffff)
                     (= retval.sroa.3.0.i.i_26_106 sub.i.i_26_101))
                (= dst_reg_26_3 i9.i_26_107)
                (= dst_reg_26_4 i11.i_26_108)
                (= or.i.i_26_109 (bvor retval.sroa.0.0.i.i_26_104 i9.i_26_107))
                (= and.i1.i_26_110
                   (bvand retval.sroa.3.0.i.i_26_106 i11.i_26_108))
                (= neg.i.i_26_112 (bvxor and.i1.i_26_110 #xffffffffffffffff))
                (= and4.i.i_26_113 (bvand or.i.i_26_109 neg.i.i_26_112))
                (=> (and (= cmp.i.i.i_26_47 #b0) a!4)
                    (= retval.0.i.i.i_26_94 phi.bo_26_93))
                (=> (and (= cmp.i.i.i_26_47 #b1) a!4)
                    (= retval.0.i.i.i_26_94 #x00000000))
                (= dst_reg_26_33 dst_reg_26_115)
                (= dst_reg_26_34 dst_reg_26_116)
                (= dst_reg_26_35 dst_reg_26_117)
                (= and4.i.i_26_113 dst_reg_26_118)
                (= and.i1.i_26_110 dst_reg_26_119)
                (= dst_reg_26_38 dst_reg_26_120)
                (= dst_reg_26_39 dst_reg_26_121)
                (= dst_reg_26_40 dst_reg_26_122)
                (= dst_reg_26_41 dst_reg_26_123)
                (= dst_reg_26_42 dst_reg_26_124)))
      (a!12 (=> (and (= cmp.i.i.i_26_47 #b0) a!4)
                (and (ite (bvult xor.i.i_26_45 #x0000000100000000)
                          (= tobool.not.i.i.i.i_26_49 #b1)
                          (= tobool.not.i.i.i.i_26_49 #b0))
                     (= shl.i.i.i.i_26_51
                        (bvshl xor.i.i_26_45 #x0000000000000020))
                     (ite (= tobool.not.i.i.i.i_26_49 #b1)
                          (= spec.select.i.i.i.i_26_52 shl.i.i.i.i_26_51)
                          (= spec.select.i.i.i.i_26_52 xor.i.i_26_45))
                     (ite (= tobool.not.i.i.i.i_26_49 #b1)
                          (= spec.select17.i.i.i.i_26_55 #x0000001f)
                          (= spec.select17.i.i.i.i_26_55 #x0000003f))
                     (ite (bvult spec.select.i.i.i.i_26_52 #x0001000000000000)
                          (= tobool2.not.i.i.i.i_26_57 #b1)
                          (= tobool2.not.i.i.i.i_26_57 #b0))
                     (= sub4.i.i.i.i_26_59
                        (bvadd spec.select17.i.i.i.i_26_55 #xfffffff0))
                     (= shl5.i.i.i.i_26_61
                        (bvshl spec.select.i.i.i.i_26_52 #x0000000000000010))
                     (ite (= tobool2.not.i.i.i.i_26_57 #b1)
                          (= word.addr.1.i.i.i.i_26_62 shl5.i.i.i.i_26_61)
                          (= word.addr.1.i.i.i.i_26_62
                             spec.select.i.i.i.i_26_52))
                     (ite (= tobool2.not.i.i.i.i_26_57 #b1)
                          (= num.1.i.i.i.i_26_63 sub4.i.i.i.i_26_59)
                          (= num.1.i.i.i.i_26_63 spec.select17.i.i.i.i_26_55))
                     (ite (bvult word.addr.1.i.i.i.i_26_62 #x0100000000000000)
                          (= tobool8.not.i.i.i.i_26_65 #b1)
                          (= tobool8.not.i.i.i.i_26_65 #b0))
                     (= sub10.i.i.i.i_26_67
                        (bvadd num.1.i.i.i.i_26_63 #xfffffff8))
                     (= shl11.i.i.i.i_26_69
                        (bvshl word.addr.1.i.i.i.i_26_62 #x0000000000000008))
                     (ite (= tobool8.not.i.i.i.i_26_65 #b1)
                          (= word.addr.2.i.i.i.i_26_70 shl11.i.i.i.i_26_69)
                          (= word.addr.2.i.i.i.i_26_70
                             word.addr.1.i.i.i.i_26_62))
                     (ite (= tobool8.not.i.i.i.i_26_65 #b1)
                          (= num.2.i.i.i.i_26_71 sub10.i.i.i.i_26_67)
                          (= num.2.i.i.i.i_26_71 num.1.i.i.i.i_26_63))
                     (ite (bvult word.addr.2.i.i.i.i_26_70 #x1000000000000000)
                          (= tobool14.not.i.i.i.i_26_73 #b1)
                          (= tobool14.not.i.i.i.i_26_73 #b0))
                     (= sub16.i.i.i.i_26_75
                        (bvadd num.2.i.i.i.i_26_71 #xfffffffc))
                     (= shl17.i.i.i.i_26_77
                        (bvshl word.addr.2.i.i.i.i_26_70 #x0000000000000004))
                     (ite (= tobool14.not.i.i.i.i_26_73 #b1)
                          (= word.addr.3.i.i.i.i_26_78 shl17.i.i.i.i_26_77)
                          (= word.addr.3.i.i.i.i_26_78
                             word.addr.2.i.i.i.i_26_70))
                     (ite (= tobool14.not.i.i.i.i_26_73 #b1)
                          (= num.3.i.i.i.i_26_79 sub16.i.i.i.i_26_75)
                          (= num.3.i.i.i.i_26_79 num.2.i.i.i.i_26_71))
                     (ite (bvult word.addr.3.i.i.i.i_26_78 #x4000000000000000)
                          (= tobool20.not.i.i.i.i_26_81 #b1)
                          (= tobool20.not.i.i.i.i_26_81 #b0))
                     (= sub22.i.i.i.i_26_83
                        (bvadd num.3.i.i.i.i_26_79 #x000000fe))
                     (= shl23.i.i.i.i_26_85
                        (bvshl word.addr.3.i.i.i.i_26_78 #x0000000000000002))
                     (ite (= tobool20.not.i.i.i.i_26_81 #b1)
                          (= word.addr.4.i.i.i.i_26_86 shl23.i.i.i.i_26_85)
                          (= word.addr.4.i.i.i.i_26_86
                             word.addr.3.i.i.i.i_26_78))
                     (ite (= tobool20.not.i.i.i.i_26_81 #b1)
                          (= num.4.i.i.i.i_26_87 sub22.i.i.i.i_26_83)
                          (= num.4.i.i.i.i_26_87 num.3.i.i.i.i_26_79))
                     (= word.addr.4.lobit.i.i.i.i.neg_26_89
                        (bvlshr word.addr.4.i.i.i.i_26_86 #x000000000000003f))
                     (= i.i.i.i.i.neg_26_90
                        ((_ extract 31 0) word.addr.4.lobit.i.i.i.i.neg_26_89))
                     (= conv.i.i.i_26_91
                        (bvadd num.4.i.i.i.i_26_87 i.i.i.i.i.neg_26_90))
                     (= phi.bo_26_93 (bvand conv.i.i.i_26_91 #x000000ff))))))
(let ((a!8 (=> (or (and (= cmp.i.i.i_26_47 #b0) a!4)
                   (and (= cmp.i.i.i_26_47 #b1) a!4))
               a!7)))
  (and (=> a!4 a!5)
       a!6
       a!8
       a!9
       a!10
       a!11
       a!12
       a!13
       a!14
       (= dst_reg_26_0 dst_reg_26_0)
       (= dst_reg_26_1 dst_reg_26_1)
       (= dst_reg_26_2 dst_reg_26_2)
       (= dst_reg_26_3 dst_reg_26_3)
       (= dst_reg_26_4 dst_reg_26_4)
       (= dst_reg_26_5 dst_reg_26_5)
       (= dst_reg_26_6 dst_reg_26_6)
       (= dst_reg_26_7 dst_reg_26_7)
       (= dst_reg_26_8 dst_reg_26_8)
       (= dst_reg_26_9 dst_reg_26_9)
       (= dst_reg_26_5 i.i_26_10)
       (ite (bvsgt i.i_26_10 #xffffffffffffffff)
            (= cmp.i_26_12 #b1)
            (= cmp.i_26_12 #b0))))))))

;{"dst_reg":["dst_reg_26_0",[""],"dst_reg_26_1","dst_reg_26_2",["dst_reg_26_3","dst_reg_26_4"],"dst_reg_26_5","dst_reg_26_6","dst_reg_26_7","dst_reg_26_8","dst_reg_26_9"]}
;{"dst_reg":["dst_reg_26_115",[""],"dst_reg_26_116","dst_reg_26_117",["dst_reg_26_118","dst_reg_26_119"],"dst_reg_26_120","dst_reg_26_121","dst_reg_26_122","dst_reg_26_123","dst_reg_26_124"]}
